82
20
15 3 4 7 4 6 7 14 8 3 11 5 3 2 2 17 9 5 3 -83 
0 0 0 0 0 0 0 0 0 0 0 0 0 0 0 0 0 0 0 0 0 0 0 0 0 0 0 0 0 0 0 0 0.06666666666666667 0.06666666666666667 0.06666666666666667 0.06666666666666667 0.06666666666666667 0.06666666666666667 0.06666666666666667 0.06666666666666667 0.06666666666666667 0.06666666666666667 0.06666666666666667 0.06666666666666667 0.06666666666666667 0.06666666666666667 0.06666666666666667 0.06666666666666667 0.06666666666666667 0.06666666666666667 0.06666666666666667 0.06666666666666667 0.06666666666666667 0.06666666666666667 0.06666666666666667 0.06666666666666667 0.2 0.1333333333333333 0.1333333333333333 0.2 0.1333333333333333 0.2 0.1333333333333333 0.2 0.1333333333333333 0.1333333333333333 0.2 0.1333333333333333 0.1333333333333333 0.2 0.1333333333333333 0.1333333333333333 0.4 0.2666666666666667 0.2666666666666667 0.2 0.4 0.2666666666666667 0.6666666666666666 0.4666666666666667 0.4 1 
0 20 83 83 1
1 20 1 1 1
1 20 83 83 1
2 20 2 2 1
2 20 83 83 1
3 20 3 3 1
3 20 83 83 1
4 20 4 4 1
4 20 83 83 1
5 20 5 5 1
5 20 83 83 1
6 20 6 6 1
6 20 83 83 1
7 20 7 7 1
7 20 83 83 1
8 20 8 8 1
8 20 83 83 1
9 20 9 9 1
9 20 83 83 1
10 20 10 10 1
10 20 83 83 1
11 20 11 11 1
11 20 83 83 1
12 20 12 12 1
12 20 83 83 1
13 20 13 13 1
13 20 83 83 1
14 20 14 14 1
14 20 83 83 1
15 20 15 15 1
15 20 83 83 1
16 20 16 16 1
16 20 83 83 1
17 20 17 17 1
17 20 83 83 1
18 20 18 18 1
18 20 83 83 1
19 20 19 19 1
19 20 83 83 1
20 20 20 20 1
20 20 83 83 1
21 20 21 21 1
21 20 83 83 1
22 20 22 22 1
22 20 83 83 1
23 20 23 23 1
23 20 83 83 1
24 20 24 24 1
24 20 83 83 1
25 20 25 25 1
25 20 83 83 1
26 20 26 26 1
26 20 83 83 1
27 20 27 27 1
27 20 83 83 1
28 20 28 28 1
28 20 83 83 1
29 20 29 29 1
29 20 83 83 1
30 20 30 30 1
30 20 83 83 1
31 20 31 31 1
31 20 83 83 1
32 20 32 32 1
32 20 83 83 1
33 20 33 33 1
33 20 83 83 1
34 20 34 34 1
34 20 83 83 1
35 20 35 35 1
35 20 83 83 1
36 20 36 36 1
36 20 83 83 1
37 20 37 37 1
37 20 83 83 1
38 20 38 38 1
38 20 83 83 1
39 20 39 39 1
39 20 83 83 1
40 20 40 40 1
40 20 83 83 1
41 20 41 41 1
41 20 83 83 1
42 20 42 42 1
42 20 83 83 1
43 20 43 43 1
43 20 83 83 1
44 20 44 44 1
44 20 83 83 1
45 20 45 45 1
45 20 83 83 1
46 20 46 46 1
46 20 83 83 1
47 20 47 47 1
47 20 83 83 1
48 20 48 48 1
48 20 83 83 1
49 20 49 49 1
49 20 83 83 1
50 20 50 50 1
50 20 83 83 1
51 20 51 51 1
51 20 83 83 1
52 20 52 52 1
52 20 83 83 1
53 20 53 53 1
53 20 83 83 1
54 20 54 54 1
54 20 83 83 1
55 20 55 55 1
55 20 83 83 1
56 20 56 56 1
56 20 83 83 1
57 20 57 57 1
57 20 83 83 1
58 20 58 58 1
58 20 83 83 1
59 20 59 59 1
59 20 83 83 1
60 20 60 60 1
60 20 83 83 1
61 20 61 61 1
61 20 83 83 1
62 20 62 62 1
62 20 83 83 1
63 20 63 63 1
63 20 83 83 1
64 20 64 64 1
64 20 83 83 1
65 20 65 65 1
65 20 83 83 1
66 20 66 66 1
66 20 83 83 1
67 20 67 67 1
67 20 83 83 1
68 20 68 68 1
68 20 83 83 1
69 20 69 69 1
69 20 83 83 1
70 20 70 70 1
70 20 83 83 1
71 20 71 71 1
71 20 83 83 1
72 20 72 72 1
72 20 83 83 1
73 20 73 73 1
73 20 83 83 1
74 20 74 74 1
74 20 83 83 1
75 20 75 75 1
75 20 83 83 1
76 20 76 76 1
76 20 83 83 1
77 20 77 77 1
77 20 83 83 1
78 20 78 78 1
78 20 83 83 1
79 20 79 79 1
79 20 83 83 1
80 20 80 80 1
80 20 83 83 1
81 20 81 81 1
81 20 83 83 1
82 20 82 82 1
82 20 83 83 1
1 1 1 1 16
1 1 2 2 8
1 1 3 5 8
1 1 4 5 8
1 2 1 1 -16
1 3 1 1 16
1 16 1 1 12
1 16 1 2 8
1 16 1 3 8
1 16 2 2 32
1 16 2 3 16
1 16 3 3 32
1 16 4 4 16
1 16 4 5 8
1 16 4 6 4
1 17 1 1 12
1 17 1 2 8
1 17 1 3 8
1 17 2 2 32
1 17 2 3 16
1 17 3 3 -32
1 19 1 1 20
2 1 1 1 8
2 1 1 2 8
2 1 3 6 8
2 1 4 6 8
2 2 1 1 -8
2 5 1 1 8
2 16 1 1 12
2 16 1 2 8
2 16 1 3 8
2 16 2 2 32
2 16 2 3 16
2 16 3 3 16
2 16 3 4 16
2 16 4 7 4
2 16 4 8 8
2 17 1 1 12
2 17 1 2 8
2 17 1 3 8
2 17 2 2 32
2 17 2 3 16
2 17 3 3 -16
2 19 1 1 20
3 1 1 1 16
3 1 2 2 8
3 1 3 7 8
3 1 4 7 8
3 2 1 1 -16
3 7 1 1 16
3 16 1 1 12
3 16 1 2 8
3 16 1 3 8
3 16 2 2 32
3 16 2 3 16
3 16 3 3 32
3 16 4 4 16
3 16 4 9 8
3 16 4 10 4
3 17 1 1 12
3 17 1 2 8
3 17 1 3 8
3 17 2 2 32
3 17 2 3 16
3 17 3 3 -32
3 19 1 1 20
4 1 1 5 8
4 1 2 7 4
4 1 3 3 4
4 1 4 8 4
4 1 5 5 4
4 1 5 7 4
4 3 1 2 16
4 7 1 2 8
4 16 1 1 4
4 16 1 2 16
4 16 1 3 4
4 16 2 2 24
4 16 2 3 8
4 16 3 4 8
4 16 3 5 16
4 16 3 6 4
4 16 3 9 8
4 16 4 4 8
4 16 4 6 4
4 16 4 10 4
4 17 1 1 4
4 17 1 2 16
4 17 1 3 -4
4 17 2 2 24
4 17 2 3 -8
4 19 1 1 20
5 1 1 6 8
5 1 2 3 2
5 1 2 7 2
5 1 3 7 2
5 1 4 9 2
5 1 4 10 2
5 1 6 6 4
5 1 6 7 4
5 2 2 2 4
5 5 1 2 8
5 7 1 3 8
5 16 1 1 4
5 16 1 2 16
5 16 1 3 2
5 16 1 4 2
5 16 2 2 24
5 16 2 3 4
5 16 2 4 4
5 16 3 3 16
5 16 3 7 8
5 16 3 8 12
5 16 3 9 4
5 16 3 10 2
5 16 4 4 8
5 16 4 8 4
5 16 4 9 4
5 16 4 10 2
5 17 1 1 4
5 17 1 2 16
5 17 1 3 -2
5 17 2 2 24
5 17 2 3 -4
5 17 3 4 4
5 19 1 1 20
6 1 1 7 8
6 1 2 5 4
6 1 3 3 4
6 1 4 11 4
6 1 5 7 4
6 1 7 7 4
6 3 1 3 8
6 7 1 4 16
6 16 1 1 4
6 16 1 2 16
6 16 1 3 4
6 16 2 2 24
6 16 2 3 8
6 16 3 4 8
6 16 3 5 8
6 16 3 9 16
6 16 3 10 4
6 16 4 4 8
6 16 4 6 4
6 16 4 10 4
6 17 1 1 4
6 17 1 2 16
6 17 1 3 -4
6 17 2 2 24
6 17 2 3 -8
6 19 1 1 20
7 1 1 7 8
7 1 2 7 4
7 1 3 3 4
7 1 4 12 4
7 1 7 7 12
7 7 1 5 16
7 7 1 6 8
7 16 1 1 4
7 16 1 2 16
7 16 1 3 4
7 16 2 2 24
7 16 2 3 8
7 16 3 4 8
7 16 3 9 24
7 16 3 10 4
7 16 4 4 8
7 16 4 10 8
7 17 1 1 4
7 17 1 2 16
7 17 1 3 -4
7 17 2 2 24
7 17 2 3 -8
7 19 1 1 20
8 1 1 8 8
8 1 2 8 4
8 1 3 12 4
8 1 4 4 4
8 3 2 2 48
8 4 1 1 24
8 4 1 2 12
8 4 1 3 12
8 4 2 2 24
8 4 2 3 12
8 4 3 3 24
8 7 2 5 16
8 7 2 6 8
8 8 1 9 8
8 8 1 10 8
8 8 1 11 8
8 16 1 5 16
8 16 1 6 2
8 16 2 5 8
8 16 2 6 4
8 16 2 9 24
8 16 3 3 24
8 16 3 4 8
8 16 3 10 4
8 16 4 4 8
8 16 4 10 2
8 16 6 10 6
8 17 3 3 24
8 19 1 1 20
9 1 1 9 4
9 1 1 10 4
9 1 2 9 2
9 1 2 10 2
9 1 3 4 2
9 1 3 12 2
9 1 4 12 2
9 5 2 2 24
9 6 1 1 12
9 6 1 2 6
9 6 1 3 6
9 6 2 2 12
9 6 2 3 6
9 6 3 3 12
9 7 3 5 16
9 7 3 6 8
9 8 2 9 4
9 8 2 10 4
9 8 2 11 4
9 8 3 9 4
9 8 3 10 4
9 8 3 11 4
9 16 1 7 8
9 16 1 8 10
9 16 2 3 12
9 16 2 7 4
9 16 2 8 8
9 16 2 9 12
9 16 3 4 8
9 16 3 9 12
9 16 3 10 4
9 16 4 4 8
9 16 4 10 2
9 16 8 10 6
9 17 1 4 6
9 17 2 3 12
9 19 1 1 20
10 1 1 11 8
10 1 2 12 4
10 1 3 8 4
10 1 4 4 4
10 3 2 3 16
10 4 2 4 8
10 4 3 4 8
10 7 2 6 8
10 7 4 4 16
10 7 4 5 16
10 8 1 11 8
10 8 5 5 8
10 8 5 6 4
10 8 5 7 4
10 8 5 8 8
10 8 5 9 4
10 8 5 10 4
10 8 6 6 8
10 8 6 7 4
10 8 6 8 4
10 8 6 9 8
10 8 6 10 4
10 8 7 7 8
10 8 7 8 4
10 8 7 9 4
10 8 7 10 8
10 16 1 9 16
10 16 1 10 2
10 16 2 5 16
10 16 2 9 16
10 16 2 10 4
10 16 3 3 24
10 16 3 4 8
10 16 3 6 4
10 16 4 4 8
10 16 4 10 2
10 16 6 10 4
10 16 10 10 4
10 17 3 3 24
10 19 1 1 20
11 1 1 12 8
11 1 2 11 4
11 1 3 11 4
11 1 4 4 4
11 3 3 3 16
11 4 4 4 16
11 7 4 5 16
11 7 4 6 16
11 7 5 5 16
11 8 5 8 8
11 8 5 9 4
11 8 5 10 4
11 8 6 8 4
11 8 6 9 8
11 8 6 10 4
11 8 6 11 8
11 8 7 8 4
11 8 7 9 4
11 8 7 10 8
11 8 7 11 8
11 8 8 8 8
11 8 8 9 4
11 8 8 10 4
11 8 9 9 8
11 8 9 10 4
11 8 10 10 8
11 16 1 9 16
11 16 1 10 2
11 16 2 5 8
11 16 2 9 24
11 16 2 10 4
11 16 3 3 24
11 16 3 4 8
11 16 3 10 4
11 16 4 4 8
11 16 4 6 2
11 16 6 10 2
11 16 10 10 8
11 17 3 3 24
11 19 1 1 20
12 1 1 12 8
12 1 2 12 4
12 1 3 12 4
12 1 4 4 4
12 7 5 5 48
12 7 5 6 16
12 7 6 6 16
12 8 8 8 24
12 8 8 9 12
12 8 8 10 12
12 8 9 9 24
12 8 9 10 12
12 8 9 11 8
12 8 10 10 24
12 8 10 11 8
12 8 11 11 16
12 16 1 9 16
12 16 1 10 2
12 16 2 9 32
12 16 2 10 4
12 16 3 3 24
12 16 3 4 8
12 16 3 10 4
12 16 4 4 8
12 16 4 10 2
12 16 10 10 12
12 17 3 3 24
12 19 1 1 20
13 1 5 8 16
13 3 1 1 16
13 3 2 2 64
13 4 1 1 -32
13 4 1 2 -16
13 4 1 3 -16
13 4 2 3 16
13 7 2 2 32
13 8 1 1 32
13 16 1 9 16
13 16 2 5 32
13 16 3 3 32
13 16 4 4 16
13 16 5 6 8
13 16 6 6 8
13 16 6 10 4
13 16 10 10 4
13 17 3 3 -32
13 19 1 1 20
14 1 5 9 4
14 1 5 10 4
14 1 9 11 4
14 1 10 10 4
14 3 1 3 8
14 5 2 2 32
14 6 2 2 -8
14 6 2 3 -8
14 6 3 3 -8
14 7 3 3 16
14 7 3 4 16
14 8 2 2 8
14 8 2 3 4
14 8 2 4 4
14 8 2 5 4
14 8 2 7 -4
14 8 3 3 8
14 8 3 4 4
14 8 3 5 -4
14 8 3 6 -4
14 8 3 7 -8
14 8 4 4 8
14 8 4 6 4
14 8 4 7 -4
14 16 1 2 4
14 16 1 3 4
14 16 1 9 4
14 16 1 10 2
14 16 2 3 8
14 16 2 7 8
14 16 2 8 8
14 16 3 8 8
14 16 3 9 8
14 16 4 4 8
14 16 4 6 2
14 16 4 10 4
14 16 5 8 8
14 16 6 10 2
14 16 7 9 8
14 16 8 8 8
14 16 9 10 4
14 17 1 2 -4
14 17 1 3 4
14 17 2 3 -8
14 17 2 4 8
14 17 3 4 -8
14 17 4 4 8
14 19 1 1 20
15 1 5 11 16
15 3 1 1 16
15 3 3 3 32
15 4 4 4 32
15 7 4 4 64
15 8 5 5 -32
15 8 5 6 -16
15 8 5 7 -16
15 8 6 7 16
15 16 1 5 16
15 16 2 9 32
15 16 3 3 32
15 16 4 4 16
15 16 5 10 8
15 16 6 6 12
15 16 10 10 8
15 17 3 3 -32
15 19 1 1 20
16 1 5 12 16
16 3 1 1 16
16 7 5 5 64
16 7 6 6 32
16 8 8 8 -32
16 8 8 9 -16
16 8 8 10 -16
16 8 9 10 16
16 8 11 11 32
16 16 1 9 16
16 16 2 9 32
16 16 3 3 32
16 16 4 4 16
16 16 5 10 8
16 16 6 10 4
16 16 10 10 12
16 17 3 3 -32
16 19 1 1 20
17 1 6 6 40
17 2 2 2 -40
17 5 1 3 20
17 16 1 1 20
17 16 2 2 40
17 16 3 8 40
17 16 4 7 20
17 17 1 1 20
17 17 2 2 40
17 17 3 4 -40
17 19 1 1 20
18 1 6 8 8
18 1 6 11 8
18 3 2 2 16
18 3 2 3 16
18 4 1 1 -8
18 4 1 2 -4
18 4 1 3 -4
18 4 2 3 4
18 4 2 4 8
18 4 3 4 8
18 5 1 1 8
18 7 2 4 16
18 7 4 4 16
18 8 1 6 8
18 8 1 7 8
18 8 5 5 -8
18 8 5 6 -4
18 8 5 7 -4
18 8 6 7 4
18 16 1 5 8
18 16 1 9 8
18 16 2 5 16
18 16 2 9 16
18 16 3 3 16
18 16 3 4 16
18 16 6 6 4
18 16 6 7 2
18 16 6 8 4
18 16 6 10 2
18 16 7 10 2
18 16 8 10 4
18 16 10 10 4
18 17 3 3 -16
18 19 1 1 20
19 1 6 12 16
19 5 1 1 8
19 7 5 5 32
19 7 5 6 32
19 8 8 8 -16
19 8 8 9 -8
19 8 8 10 -8
19 8 9 10 8
19 8 9 11 16
19 8 10 11 16
19 16 1 9 16
19 16 2 9 32
19 16 3 3 16
19 16 3 4 16
19 16 7 10 4
19 16 8 10 8
19 16 10 10 12
19 17 3 3 -16
19 19 1 1 20
20 1 7 8 16
20 3 2 2 64
20 4 1 1 -32
20 4 1 2 -16
20 4 1 3 -16
20 4 2 3 16
20 7 1 1 16
20 7 2 2 32
20 8 1 1 32
20 16 1 9 16
20 16 2 5 32
20 16 3 3 32
20 16 4 4 16
20 16 6 6 8
20 16 6 9 8
20 16 10 10 12
20 17 3 3 -32
20 19 1 1 20
21 1 7 9 4
21 1 7 10 4
21 1 9 12 4
21 1 10 10 4
21 5 2 2 32
21 6 2 2 -8
21 6 2 3 -8
21 6 3 3 -8
21 7 1 6 8
21 7 3 3 16
21 7 3 5 16
21 8 2 2 8
21 8 2 3 4
21 8 2 4 4
21 8 2 8 4
21 8 2 10 -4
21 8 3 3 8
21 8 3 4 4
21 8 3 8 -4
21 8 3 9 -4
21 8 3 10 -8
21 8 4 4 8
21 8 4 9 4
21 8 4 10 -4
21 16 1 2 4
21 16 1 3 4
21 16 1 9 4
21 16 1 10 2
21 16 2 3 8
21 16 2 7 8
21 16 2 8 8
21 16 3 8 8
21 16 3 9 8
21 16 4 4 8
21 16 4 10 6
21 16 7 9 8
21 16 8 8 8
21 16 8 9 8
21 16 9 10 4
21 16 10 10 4
21 17 1 2 -4
21 17 1 3 4
21 17 2 3 -8
21 17 2 4 8
21 17 3 4 -8
21 17 4 4 8
21 19 1 1 20
22 1 7 11 8
22 1 7 12 8
22 3 3 3 16
22 4 4 4 16
22 7 1 1 16
22 7 4 5 32
22 7 6 6 16
22 8 5 8 -16
22 8 5 9 -8
22 8 5 10 -8
22 8 6 8 -8
22 8 6 10 8
22 8 7 8 -8
22 8 7 9 8
22 8 11 11 16
22 16 1 5 8
22 16 1 9 8
22 16 2 9 32
22 16 3 3 32
22 16 4 4 16
22 16 6 10 4
22 16 9 10 8
22 16 10 10 12
22 17 3 3 -32
22 19 1 1 20
23 1 7 12 16
23 7 1 1 16
23 7 5 5 64
23 7 6 6 32
23 8 8 8 -32
23 8 8 9 -16
23 8 8 10 -16
23 8 9 10 16
23 8 11 11 32
23 16 1 9 16
23 16 2 9 32
23 16 3 3 32
23 16 4 4 16
23 16 9 10 8
23 16 10 10 20
23 17 3 3 -32
23 19 1 1 20
24 1 8 8 8
24 1 8 11 8
24 3 2 2 64
24 3 3 3 16
24 4 2 2 -16
24 4 2 3 -16
24 4 3 3 -16
24 4 4 4 -16
24 7 2 4 32
24 8 1 6 -16
24 8 1 7 -16
24 16 1 1 4
24 16 1 2 8
24 16 2 2 16
24 16 3 6 16
24 16 3 10 8
24 16 4 6 4
24 16 4 10 8
24 16 5 5 24
24 16 5 9 16
24 16 9 9 16
24 17 1 1 -4
24 17 1 2 -8
24 17 2 2 -16
24 19 1 1 20
25 1 8 8 8
25 1 8 12 8
25 3 2 2 64
25 4 2 2 -16
25 4 2 3 -16
25 4 3 3 -16
25 7 2 5 32
25 7 6 6 16
25 8 1 9 -16
25 8 1 10 -16
25 8 11 11 -16
25 16 1 1 4
25 16 1 2 8
25 16 2 2 16
25 16 3 6 16
25 16 3 10 8
25 16 4 10 12
25 16 5 5 8
25 16 5 9 24
25 16 9 9 16
25 17 1 1 -4
25 17 1 2 -8
25 17 2 2 -16
25 19 1 1 20
26 1 8 11 8
26 1 11 11 8
26 3 2 3 32
26 4 2 4 -16
26 4 3 4 -16
26 7 2 2 16
26 7 4 4 64
26 8 1 1 -16
26 8 6 6 -16
26 8 6 7 -16
26 8 7 7 -16
26 16 1 1 4
26 16 1 2 8
26 16 2 2 16
26 16 3 6 8
26 16 3 10 16
26 16 4 6 8
26 16 4 10 4
26 16 5 5 16
26 16 5 9 16
26 16 9 9 24
26 17 1 1 -4
26 17 1 2 -8
26 17 2 2 -16
26 19 1 1 20
27 1 8 12 4
27 1 11 11 4
27 1 11 12 4
27 1 12 12 4
27 3 2 3 16
27 4 2 4 -8
27 4 3 4 -8
27 7 2 6 8
27 7 4 5 32
27 7 5 6 16
27 8 1 11 -8
27 8 6 9 -8
27 8 6 10 -8
27 8 7 9 -8
27 8 7 10 -8
27 8 9 11 -8
27 8 10 11 -8
27 16 1 1 4
27 16 1 2 8
27 16 2 2 16
27 16 3 6 4
27 16 3 10 20
27 16 4 6 4
27 16 4 10 8
27 16 5 9 16
27 16 9 9 40
27 17 1 1 -4
27 17 1 2 -8
27 17 2 2 -16
27 19 1 1 20
28 1 9 9 8
28 1 10 11 8
28 3 3 3 16
28 4 4 4 -16
28 5 2 2 32
28 6 1 1 -16
28 6 1 2 -8
28 6 1 3 -8
28 6 2 3 8
28 7 3 4 32
28 8 2 5 -8
28 8 2 6 -16
28 8 2 7 -8
28 8 3 5 8
28 8 3 6 -8
28 8 4 6 -8
28 8 4 7 8
28 16 1 1 4
28 16 1 3 8
28 16 2 2 16
28 16 2 10 8
28 16 3 8 16
28 16 4 6 4
28 16 4 10 8
28 16 5 7 8
28 16 7 7 8
28 16 8 9 16
28 16 9 9 16
28 17 1 1 -4
28 17 1 3 -8
28 17 2 2 -16
28 17 3 4 16
28 19 1 1 20
29 1 9 9 8
29 1 10 12 8
29 5 2 2 32
29 6 1 1 -16
29 6 1 2 -8
29 6 1 3 -8
29 6 2 3 8
29 7 3 5 32
29 7 6 6 16
29 8 2 8 -8
29 8 2 9 -16
29 8 2 10 -8
29 8 3 8 8
29 8 3 9 -8
29 8 4 9 -8
29 8 4 10 8
29 8 11 11 -16
29 16 1 1 4
29 16 1 3 8
29 16 2 2 16
29 16 2 10 8
29 16 3 8 16
29 16 4 10 12
29 16 7 7 8
29 16 7 9 8
29 16 8 9 16
29 16 9 9 16
29 17 1 1 -4
29 17 1 3 -8
29 17 2 2 -16
29 17 3 4 16
29 19 1 1 20
30 1 9 10 8
30 5 2 3 32
30 5 3 3 8
30 7 3 3 32
30 8 2 3 8
30 8 2 4 -8
30 8 3 4 -8
30 8 4 4 -16
30 16 1 8 8
30 16 2 8 16
30 16 3 7 16
30 16 4 4 8
30 16 7 8 16
30 16 7 10 4
30 16 8 8 16
30 16 8 9 16
30 16 10 10 4
30 17 1 4 -8
30 17 2 4 -16
30 17 4 4 -16
30 19 1 1 20
31 1 11 12 8
31 1 12 12 8
31 3 3 3 16
31 4 4 4 -16
31 7 4 6 32
31 7 5 5 64
31 8 6 11 -16
31 8 7 11 -16
31 8 9 9 -16
31 8 9 10 -16
31 8 10 10 -16
31 16 1 1 4
31 16 1 2 8
31 16 2 2 16
31 16 3 10 24
31 16 4 6 4
31 16 4 10 8
31 16 5 9 8
31 16 9 9 56
31 17 1 1 -4
31 17 1 2 -8
31 17 2 2 -16
31 19 1 1 20
32 1 12 12 24
32 7 5 5 64
32 7 5 6 32
32 7 6 6 16
32 8 9 9 -16
32 8 9 10 -16
32 8 9 11 -16
32 8 10 10 -16
32 8 10 11 -16
32 8 11 11 -16
32 16 1 1 4
32 16 1 2 8
32 16 2 2 16
32 16 3 10 24
32 16 4 10 12
32 16 9 9 72
32 17 1 1 -4
32 17 1 2 -8
32 17 2 2 -16
32 19 1 1 20
33 1 1 13 8
33 1 2 13 4
33 1 3 13 4
33 1 4 4 4
33 9 1 1 24
33 9 1 2 8
33 9 2 2 8
33 10 1 1 24
33 16 1 11 16
33 16 1 12 2
33 16 2 11 32
33 16 2 12 4
33 16 3 3 24
33 16 3 4 8
33 16 3 12 4
33 16 4 4 8
33 16 4 12 2
33 17 1 5 16
33 17 2 5 32
33 17 3 3 24
33 18 1 1 12
33 19 1 1 12
33 19 1 2 4
34 1 1 14 8
34 1 2 14 4
34 1 3 3 4
34 1 4 13 4
34 9 1 3 8
34 9 2 3 4
34 11 1 1 12
34 16 1 13 12
34 16 1 14 2
34 16 1 15 4
34 16 2 2 24
34 16 2 14 4
34 16 2 15 8
34 16 3 4 8
34 16 3 11 24
34 16 3 12 4
34 16 4 4 8
34 16 4 12 2
34 17 1 6 12
34 17 1 7 2
34 17 1 8 4
34 17 2 2 24
34 17 2 7 4
34 17 2 8 8
34 17 3 5 24
34 18 1 2 6
34 19 1 1 12
34 19 1 2 4
35 1 1 15 8
35 1 2 2 4
35 1 3 14 4
35 1 4 14 4
35 2 1 3 8
35 9 3 3 8
35 11 1 3 4
35 11 1 4 4
35 11 2 2 4
35 16 1 1 8
35 16 1 13 4
35 16 1 14 2
35 16 1 15 4
35 16 2 2 16
35 16 2 3 8
35 16 2 13 8
35 16 2 14 4
35 16 3 13 8
35 16 3 14 4
35 16 3 15 16
35 16 4 4 8
35 16 4 11 8
35 16 4 12 2
35 17 1 1 8
35 17 1 6 4
35 17 1 7 2
35 17 1 8 -4
35 17 2 2 16
35 17 2 3 8
35 17 2 6 8
35 17 2 7 4
35 17 3 6 8
35 17 3 7 4
35 17 3 8 16
35 18 1 2 2
35 18 2 2 8
35 19 1 1 12
35 19 1 2 4
36 1 1 1 4
36 1 1 15 4
36 1 2 15 4
36 1 3 15 4
36 1 4 15 4
36 2 1 1 4
36 2 1 3 -4
36 11 2 2 4
36 11 2 3 2
36 11 2 4 2
36 11 3 3 4
36 11 3 4 2
36 11 4 4 4
36 16 1 1 8
36 16 1 2 4
36 16 1 3 4
36 16 1 14 2
36 16 2 2 8
36 16 2 3 4
36 16 2 13 12
36 16 2 14 4
36 16 2 15 4
36 16 3 3 8
36 16 3 13 8
36 16 3 14 4
36 16 3 15 8
36 16 4 13 4
36 16 4 14 2
36 16 4 15 12
36 17 1 1 8
36 17 1 2 4
36 17 1 3 4
36 17 1 7 2
36 17 2 2 8
36 17 2 3 4
36 17 2 6 12
36 17 2 7 4
36 17 2 8 -4
36 17 3 3 8
36 17 3 6 8
36 17 3 7 4
36 17 3 8 -8
36 18 2 2 12
36 19 1 1 12
36 19 1 2 4
37 1 5 13 16
37 3 1 1 16
37 9 1 1 32
37 9 2 2 16
37 10 1 1 -32
37 16 1 11 16
37 16 2 11 32
37 16 3 3 32
37 16 4 4 16
37 16 5 12 8
37 16 6 12 4
37 17 1 5 16
37 17 2 5 32
37 17 3 3 -32
37 18 1 1 12
37 19 1 1 12
37 19 1 2 4
38 1 5 5 4
38 1 5 14 4
38 1 5 15 8
38 3 1 4 16
38 9 3 4 4
38 11 1 2 4
38 11 3 3 4
38 11 4 5 4
38 16 1 2 8
38 16 1 13 4
38 16 1 14 2
38 16 2 2 8
38 16 2 13 8
38 16 2 14 4
38 16 3 5 8
38 16 3 11 8
38 16 3 13 8
38 16 3 14 4
38 16 4 6 4
38 16 4 12 2
38 16 4 15 8
38 16 5 15 8
38 16 6 15 4
38 17 1 2 8
38 17 1 6 4
38 17 1 7 2
38 17 2 2 8
38 17 2 6 8
38 17 2 7 4
38 17 3 5 -8
38 17 3 6 -8
38 17 3 7 -4
38 18 1 2 2
38 18 2 2 8
38 19 1 1 12
38 19 1 2 4
39 1 6 13 16
39 5 1 1 8
39 9 1 1 16
39 9 1 2 16
39 10 1 1 -16
39 16 1 11 16
39 16 2 11 32
39 16 3 3 16
39 16 3 4 16
39 16 7 12 4
39 16 8 12 8
39 17 1 5 16
39 17 2 5 32
39 17 3 3 -16
39 18 1 1 12
39 19 1 1 12
39 19 1 2 4
40 1 6 6 4
40 1 6 14 4
40 1 6 15 8
40 2 2 2 4
40 5 1 4 8
40 9 3 5 4
40 11 1 2 2
40 11 1 3 2
40 11 2 3 2
40 11 4 6 2
40 11 4 7 2
40 16 1 2 8
40 16 1 13 4
40 16 1 14 2
40 16 2 2 8
40 16 2 13 8
40 16 2 14 4
40 16 3 7 4
40 16 3 8 4
40 16 3 11 4
40 16 3 12 2
40 16 3 13 4
40 16 3 14 2
40 16 3 15 8
40 16 4 8 4
40 16 4 11 4
40 16 4 13 4
40 16 4 14 2
40 16 7 15 4
40 16 8 15 8
40 17 1 2 8
40 17 1 6 4
40 17 1 7 2
40 17 2 2 8
40 17 2 6 8
40 17 2 7 4
40 17 3 4 4
40 17 3 5 -4
40 17 3 6 -4
40 17 3 7 -2
40 18 1 2 2
40 18 2 2 8
40 19 1 1 12
40 19 1 2 4
41 1 7 13 16
41 7 1 1 16
41 9 1 1 32
41 9 2 2 16
41 10 1 1 -32
41 16 1 11 16
41 16 2 11 32
41 16 3 3 32
41 16 4 4 16
41 16 9 12 8
41 16 10 12 4
41 17 1 5 16
41 17 2 5 32
41 17 3 3 -32
41 18 1 1 12
41 19 1 1 12
41 19 1 2 4
42 1 7 7 4
42 1 7 14 4
42 1 7 15 8
42 7 1 7 16
42 9 3 6 4
42 11 1 2 4
42 11 3 3 4
42 11 4 8 4
42 16 1 2 8
42 16 1 13 4
42 16 1 14 2
42 16 2 2 8
42 16 2 13 8
42 16 2 14 4
42 16 3 9 8
42 16 3 11 8
42 16 3 13 8
42 16 3 14 4
42 16 4 10 4
42 16 4 12 2
42 16 4 15 8
42 16 9 15 8
42 16 10 15 4
42 17 1 2 8
42 17 1 6 4
42 17 1 7 2
42 17 2 2 8
42 17 2 6 8
42 17 2 7 4
42 17 3 5 -8
42 17 3 6 -8
42 17 3 7 -4
42 18 1 2 2
42 18 2 2 8
42 19 1 1 12
42 19 1 2 4
43 1 8 8 4
43 1 8 13 4
43 3 2 4 32
43 4 2 5 8
43 4 2 6 8
43 4 3 5 8
43 4 3 6 8
43 7 2 7 16
43 8 1 12 8
43 8 1 13 8
43 9 1 4 8
43 9 2 6 4
43 11 5 5 4
43 11 5 8 4
43 16 1 13 4
43 16 1 14 2
43 16 2 13 8
43 16 2 14 4
43 16 3 6 8
43 16 3 12 4
43 16 4 10 4
43 16 4 12 2
43 16 5 5 8
43 16 5 9 8
43 16 5 11 16
43 16 6 15 8
43 16 9 11 8
43 16 10 15 4
43 17 1 6 -4
43 17 1 7 -2
43 17 2 6 -8
43 17 2 7 -4
43 18 1 2 6
43 19 1 1 12
43 19 1 2 4
44 1 8 14 8
44 3 2 4 32
44 4 1 5 -8
44 4 1 6 8
44 4 2 5 -16
44 4 2 6 -8
44 4 2 7 -8
44 4 3 5 -8
44 4 3 7 8
44 7 2 2 16
44 8 1 1 16
44 9 3 3 8
44 9 4 4 8
44 11 1 5 8
44 16 1 11 8
44 16 2 5 16
44 16 3 15 16
44 16 4 4 8
44 16 5 13 16
44 16 6 6 8
44 16 6 11 8
44 16 9 14 8
44 16 10 12 4
44 17 1 5 -8
44 17 3 8 16
44 18 1 1 4
44 18 2 2 8
44 19 1 1 12
44 19 1 2 4
45 1 8 15 8
45 3 2 2 16
45 3 2 4 16
45 4 1 1 8
45 4 1 2 4
45 4 1 3 4
45 4 1 5 4
45 4 1 6 -4
45 4 2 2 8
45 4 2 3 4
45 4 2 6 -4
45 4 2 7 4
45 4 3 3 8
45 4 3 5 -4
45 4 3 6 -8
45 4 3 7 -4
45 7 2 7 16
45 8 1 12 -8
45 8 1 13 -8
45 9 4 6 4
45 11 2 5 4
45 11 3 8 4
45 11 4 4 4
45 16 1 5 8
45 16 2 9 8
45 16 2 11 8
45 16 3 3 8
45 16 3 15 8
45 16 4 15 8
45 16 5 13 8
45 16 5 14 8
45 16 6 10 4
45 16 6 12 2
45 16 6 13 4
45 16 6 14 2
45 16 9 13 8
45 16 10 15 4
45 17 2 5 -8
45 17 3 3 8
45 17 3 8 -8
45 18 1 2 2
45 18 2 2 8
45 19 1 1 12
45 19 1 2 4
46 1 9 13 4
46 1 10 14 4
46 5 2 4 16
46 6 1 4 8
46 6 1 5 4
46 6 1 6 4
46 6 2 4 4
46 6 2 5 8
46 6 2 6 4
46 6 3 4 4
46 6 3 5 4
46 6 3 6 8
46 7 3 3 16
46 8 2 2 8
46 8 2 3 4
46 8 2 4 4
46 8 3 3 8
46 8 3 4 4
46 8 4 4 8
46 9 1 5 8
46 9 2 3 4
46 10 1 2 8
46 11 1 7 4
46 11 6 6 4
46 16 1 13 4
46 16 1 15 4
46 16 2 7 8
46 16 2 15 8
46 16 3 8 8
46 16 3 11 8
46 16 4 4 8
46 16 7 11 8
46 16 8 8 8
46 16 8 11 8
46 16 8 13 8
46 16 9 12 4
46 16 9 14 4
46 16 10 12 2
46 16 10 14 2
46 17 1 6 -4
46 17 1 8 -4
46 17 2 8 8
46 17 3 4 -8
46 17 3 5 8
46 17 4 4 8
46 17 4 5 8
46 17 4 6 8
46 18 1 2 6
46 19 1 1 12
46 19 1 2 4
47 1 9 14 4
47 1 10 10 4
47 5 2 4 16
47 6 1 4 -8
47 6 1 5 -4
47 6 1 6 -4
47 6 2 4 -4
47 6 2 6 4
47 6 3 4 -4
47 6 3 5 4
47 7 3 7 16
47 8 2 12 8
47 8 2 13 4
47 8 2 14 4
47 8 3 12 4
47 8 3 13 8
47 8 3 14 4
47 8 4 12 4
47 8 4 13 4
47 8 4 14 8
47 9 3 6 4
47 9 5 5 8
47 10 2 2 8
47 11 1 6 4
47 11 7 8 4
47 16 1 11 4
47 16 1 12 2
47 16 2 8 8
47 16 2 14 4
47 16 3 13 8
47 16 3 14 4
47 16 4 10 4
47 16 4 12 2
47 16 7 9 8
47 16 7 13 8
47 16 8 8 8
47 16 8 11 8
47 16 8 15 8
47 16 9 15 8
47 16 10 11 4
47 17 1 5 -4
47 17 2 4 8
47 17 2 7 -4
47 17 3 6 -8
47 17 3 7 4
47 17 4 4 8
47 17 4 5 -8
47 17 4 8 8
47 18 1 1 4
47 18 2 2 8
47 19 1 1 12
47 19 1 2 4
48 1 9 15 4
48 1 10 15 4
48 5 2 2 8
48 5 2 4 8
48 6 1 1 4
48 6 1 2 2
48 6 1 3 2
48 6 1 5 2
48 6 1 6 -2
48 6 2 2 4
48 6 2 3 2
48 6 2 4 -2
48 6 2 5 -2
48 6 2 6 -4
48 6 3 3 4
48 6 3 4 2
48 6 3 6 -2
48 7 3 7 16
48 8 2 12 -4
48 8 2 13 -4
48 8 3 12 -4
48 8 3 13 -4
48 9 5 6 4
48 11 2 6 2
48 11 2 7 2
48 11 3 4 2
48 11 3 8 2
48 11 4 8 2
48 16 1 7 4
48 16 1 8 4
48 16 2 3 4
48 16 2 9 4
48 16 2 11 4
48 16 2 15 4
48 16 3 9 4
48 16 3 11 4
48 16 3 13 4
48 16 4 15 8
48 16 7 13 4
48 16 7 14 4
48 16 8 10 4
48 16 8 12 2
48 16 8 13 8
48 16 8 14 6
48 16 9 13 4
48 16 9 15 4
48 16 10 15 4
48 17 1 4 4
48 17 2 3 4
48 17 2 5 -4
48 17 2 8 -4
48 17 3 5 -4
48 17 3 6 4
48 17 4 7 2
48 18 1 2 2
48 18 2 2 8
48 19 1 1 12
48 19 1 2 4
49 1 9 9 4
49 1 10 13 4
49 5 2 4 16
49 6 1 5 -4
49 6 1 6 4
49 6 2 4 4
49 6 2 5 -4
49 6 3 4 -4
49 6 3 5 -8
49 6 3 6 -4
49 7 3 7 16
49 8 2 13 4
49 8 2 14 -4
49 8 3 12 4
49 8 3 14 -4
49 8 4 12 -4
49 8 4 13 -4
49 8 4 14 -8
49 9 1 5 8
49 9 2 6 4
49 10 1 2 -8
49 11 6 8 4
49 11 7 7 4
49 16 1 14 2
49 16 1 15 4
49 16 2 12 4
49 16 2 13 8
49 16 3 8 8
49 16 3 14 4
49 16 4 10 4
49 16 4 12 2
49 16 7 7 8
49 16 7 11 8
49 16 8 9 8
49 16 8 11 8
49 16 8 15 8
49 16 9 11 8
49 16 10 13 4
49 17 1 7 -2
49 17 1 8 4
49 17 2 6 -8
49 17 3 4 8
49 17 3 7 -4
49 17 4 5 8
49 17 4 8 -8
49 18 1 2 6
49 19 1 1 12
49 19 1 2 4
50 1 11 11 4
50 1 11 13 4
50 3 3 4 16
50 4 4 5 8
50 4 4 6 8
50 7 4 7 32
50 8 6 12 8
50 8 6 13 8
50 8 7 12 8
50 8 7 13 8
50 9 1 6 8
50 9 2 4 4
50 11 5 8 4
50 11 8 8 4
50 16 1 13 4
50 16 1 14 2
50 16 2 13 8
50 16 2 14 4
50 16 3 10 8
50 16 3 12 4
50 16 4 6 4
50 16 4 12 2
50 16 5 9 8
50 16 5 11 8
50 16 6 15 4
50 16 9 9 8
50 16 9 11 16
50 16 10 15 8
50 17 1 6 -4
50 17 1 7 -2
50 17 2 6 -8
50 17 2 7 -4
50 18 1 2 6
50 19 1 1 12
50 19 1 2 4
51 1 11 14 8
51 3 3 3 16
51 4 4 4 16
51 7 4 7 32
51 8 5 12 -8
51 8 5 13 8
51 8 6 12 -16
51 8 6 13 -8
51 8 6 14 -8
51 8 7 12 -8
51 8 7 14 8
51 9 3 3 8
51 9 6 6 8
51 11 1 8 8
51 16 1 11 8
51 16 2 9 16
51 16 3 15 16
51 16 4 4 8
51 16 5 14 8
51 16 6 12 4
51 16 9 13 16
51 16 10 10 8
51 16 10 11 8
51 17 1 5 -8
51 17 3 8 16
51 18 1 1 4
51 18 2 2 8
51 19 1 1 12
51 19 1 2 4
52 1 11 15 8
52 3 3 4 16
52 4 4 5 -8
52 4 4 6 -8
52 7 4 4 16
52 7 4 7 16
52 8 5 5 8
52 8 5 6 4
52 8 5 7 4
52 8 5 12 4
52 8 5 13 -4
52 8 6 6 8
52 8 6 7 4
52 8 6 13 -4
52 8 6 14 4
52 8 7 7 8
52 8 7 12 -4
52 8 7 13 -8
52 8 7 14 -4
52 9 4 6 4
52 11 2 8 4
52 11 3 5 4
52 11 4 4 4
52 16 1 9 8
52 16 2 5 8
52 16 2 11 8
52 16 3 3 8
52 16 3 15 8
52 16 4 15 8
52 16 5 13 8
52 16 6 10 4
52 16 6 15 4
52 16 9 13 8
52 16 9 14 8
52 16 10 12 2
52 16 10 13 4
52 16 10 14 2
52 17 2 5 -8
52 17 3 3 8
52 17 3 8 -8
52 18 1 2 2
52 18 2 2 8
52 19 1 1 12
52 19 1 2 4
53 1 12 12 4
53 1 12 13 4
53 7 5 7 32
53 7 6 7 16
53 8 9 12 8
53 8 9 13 8
53 8 10 12 8
53 8 10 13 8
53 8 11 12 8
53 8 11 13 8
53 9 1 6 8
53 9 2 6 4
53 11 8 8 12
53 16 1 13 4
53 16 1 14 2
53 16 2 13 8
53 16 2 14 4
53 16 3 10 8
53 16 3 12 4
53 16 4 10 4
53 16 4 12 2
53 16 9 9 24
53 16 9 11 24
53 16 10 15 12
53 17 1 6 -4
53 17 1 7 -2
53 17 2 6 -8
53 17 2 7 -4
53 18 1 2 6
53 19 1 1 12
53 19 1 2 4
54 1 12 14 8
54 7 5 7 32
54 7 6 6 16
54 8 8 12 -8
54 8 8 13 8
54 8 9 12 -16
54 8 9 13 -8
54 8 9 14 -8
54 8 10 12 -8
54 8 10 14 8
54 8 11 11 16
54 9 3 3 8
54 9 6 6 8
54 11 1 8 8
54 16 1 11 8
54 16 2 9 16
54 16 3 15 16
54 16 4 4 8
54 16 9 13 16
54 16 9 14 8
54 16 10 10 8
54 16 10 11 8
54 16 10 12 4
54 17 1 5 -8
54 17 3 8 16
54 18 1 1 4
54 18 2 2 8
54 19 1 1 12
54 19 1 2 4
55 1 12 15 8
55 7 5 5 16
55 7 5 7 16
55 7 6 7 16
55 8 8 8 8
55 8 8 9 4
55 8 8 10 4
55 8 8 12 4
55 8 8 13 -4
55 8 9 9 8
55 8 9 10 4
55 8 9 13 -4
55 8 9 14 4
55 8 10 10 8
55 8 10 12 -4
55 8 10 13 -8
55 8 10 14 -4
55 8 11 12 -8
55 8 11 13 -8
55 9 6 6 8
55 11 2 8 4
55 11 3 8 4
55 11 4 4 4
55 16 1 9 8
55 16 2 9 8
55 16 2 11 8
55 16 3 3 8
55 16 3 15 8
55 16 4 15 8
55 16 9 13 16
55 16 9 14 8
55 16 10 10 8
55 16 10 12 2
55 16 10 13 4
55 16 10 14 2
55 16 10 15 4
55 17 2 5 -8
55 17 3 3 8
55 17 3 8 -8
55 18 1 2 2
55 18 2 2 8
55 19 1 1 12
55 19 1 2 4
56 5 3 3 8
56 5 3 4 32
56 9 5 5 16
56 10 2 2 -16
56 11 6 7 8
56 16 7 8 16
56 16 7 12 4
56 16 7 15 16
56 16 8 8 16
56 16 8 11 16
56 16 8 13 16
56 16 8 14 8
56 17 4 4 -16
56 17 4 5 -16
56 17 4 6 -16
56 17 4 7 -8
56 18 1 1 4
56 18 2 2 8
56 19 1 1 12
56 19 1 2 4
57 1 13 13 12
57 9 1 7 24
57 9 2 7 12
57 12 1 1 36
57 16 1 16 6
57 16 2 16 12
57 16 3 12 12
57 16 4 12 6
57 16 11 11 72
57 17 1 9 6
57 17 2 9 12
57 17 5 5 72
57 18 1 3 18
57 19 1 2 9
57 19 1 3 1
58 1 13 14 8
58 9 1 8 16
58 9 2 2 8
58 9 3 3 8
58 10 1 3 16
58 11 1 9 8
58 13 1 1 16
58 14 1 1 16
58 16 1 17 8
58 16 2 11 16
58 16 3 15 16
58 16 4 4 8
58 16 11 12 8
58 16 11 13 16
58 16 11 14 8
58 16 12 12 4
58 17 2 5 16
58 17 3 8 16
58 17 5 6 16
58 17 5 7 8
58 18 1 1 8
58 18 1 4 4
58 18 2 2 8
58 19 1 1 8
58 19 1 2 4
58 19 2 2 4
59 1 13 15 8
59 9 1 1 8
59 9 1 8 8
59 9 2 8 8
59 10 1 1 8
59 10 1 3 -8
59 11 2 9 4
59 11 3 9 4
59 11 4 4 4
59 13 1 1 16
59 14 1 1 16
59 16 1 11 8
59 16 2 11 8
59 16 2 17 8
59 16 3 3 8
59 16 3 15 8
59 16 4 15 8
59 16 11 13 16
59 16 11 14 8
59 16 12 13 4
59 16 12 14 2
59 16 12 15 4
59 17 1 5 8
59 17 2 5 8
59 17 3 3 8
59 17 3 8 -8
59 17 5 6 16
59 17 5 7 8
59 18 1 1 8
59 18 1 4 2
59 18 2 2 8
59 18 2 4 2
59 19 1 1 8
59 19 1 2 4
59 19 2 2 4
60 1 14 14 12
60 9 3 7 12
60 11 1 10 12
60 12 1 3 12
60 12 2 2 12
60 16 1 16 6
60 16 2 14 12
60 16 3 16 12
60 16 4 12 6
60 16 11 15 24
60 16 13 13 24
60 17 1 9 -6
60 17 2 7 12
60 17 3 9 12
60 17 5 8 24
60 17 6 6 24
60 18 1 3 6
60 18 2 3 12
60 19 1 2 9
60 19 1 3 1
61 1 14 15 8
61 9 3 8 8
61 11 1 1 4
61 11 1 11 4
61 11 2 11 4
61 11 3 3 4
61 11 4 9 4
61 13 1 2 8
61 16 1 13 8
61 16 2 2 8
61 16 2 13 8
61 16 3 11 8
61 16 3 17 8
61 16 4 15 8
61 16 11 15 8
61 16 12 15 4
61 16 13 14 8
61 16 13 15 8
61 16 14 14 4
61 16 14 15 4
61 17 1 6 8
61 17 2 2 8
61 17 2 6 8
61 17 3 5 8
61 17 5 8 -8
61 17 6 7 8
61 17 6 8 8
61 17 7 7 4
61 17 7 8 4
61 18 1 2 4
61 18 2 2 8
61 18 2 4 4
61 19 1 1 8
61 19 1 2 4
61 19 2 2 4
62 1 15 15 12
62 2 3 3 12
62 11 2 10 6
62 11 3 10 6
62 11 4 10 6
62 12 2 2 12
62 12 2 3 6
62 12 3 3 12
62 16 1 14 6
62 16 2 14 6
62 16 2 16 6
62 16 3 14 6
62 16 3 16 6
62 16 4 16 6
62 16 13 13 24
62 16 13 15 12
62 16 15 15 24
62 17 1 7 6
62 17 2 7 6
62 17 2 9 -6
62 17 3 7 6
62 17 3 9 -6
62 17 6 6 24
62 17 6 8 -12
62 17 8 8 24
62 18 2 3 18
62 19 1 2 9
62 19 1 3 1
63 1 15 15 16
63 2 3 3 -16
63 11 2 2 8
63 11 3 11 8
63 11 4 11 8
63 13 2 2 16
63 16 1 1 8
63 16 2 13 16
63 16 3 13 16
63 16 4 17 8
63 16 13 14 8
63 16 14 14 4
63 16 14 15 8
63 16 15 15 32
63 17 1 1 8
63 17 2 6 16
63 17 3 6 16
63 17 6 7 8
63 17 7 7 4
63 17 7 8 -8
63 17 8 8 -32
63 18 2 2 16
63 18 2 4 4
63 19 1 1 8
63 19 1 2 4
63 19 2 2 4
64 3 4 4 48
64 4 5 5 24
64 4 5 6 12
64 4 5 7 12
64 4 6 6 24
64 4 6 7 12
64 4 7 7 24
64 9 4 7 12
64 11 5 10 12
64 12 1 2 12
64 12 3 3 12
64 16 5 14 12
64 16 5 16 12
64 16 6 12 6
64 16 6 16 6
64 16 11 13 24
64 16 15 15 24
64 17 5 6 -24
64 17 8 8 24
64 18 1 3 6
64 18 2 3 12
64 19 1 2 9
64 19 1 3 1
65 3 4 4 64
65 4 5 5 -16
65 4 5 6 -16
65 4 6 6 -16
65 9 4 8 16
65 11 5 5 8
65 11 5 9 8
65 13 1 1 16
65 14 1 1 -16
65 16 5 5 8
65 16 5 11 16
65 16 5 17 8
65 16 6 15 16
65 16 11 11 16
65 16 12 15 8
65 16 13 13 16
65 16 13 14 8
65 16 14 14 4
65 17 5 5 -16
65 17 6 6 -16
65 17 6 7 -8
65 17 7 7 -4
65 18 1 2 8
65 18 2 4 4
65 19 1 1 8
65 19 1 2 4
65 19 2 2 4
66 3 4 4 64
66 4 5 6 16
66 4 5 7 -16
66 4 6 7 -16
66 4 7 7 -32
66 9 4 4 16
66 11 5 11 16
66 13 2 2 16
66 16 5 13 32
66 16 6 6 8
66 16 6 17 8
66 16 11 14 16
66 16 12 12 4
66 16 15 15 32
66 17 5 7 -16
66 17 8 8 -32
66 18 1 4 4
66 18 2 2 16
66 19 1 1 8
66 19 1 2 4
66 19 2 2 4
67 5 4 4 24
67 6 4 4 12
67 6 4 5 6
67 6 4 6 6
67 6 5 5 12
67 6 5 6 6
67 6 6 6 12
67 9 5 7 12
67 11 6 10 6
67 11 7 10 6
67 12 1 2 6
67 12 1 3 6
67 12 2 3 6
67 16 7 14 6
67 16 7 16 6
67 16 8 12 6
67 16 8 14 6
67 16 8 16 12
67 16 11 13 12
67 16 11 15 12
67 16 13 15 12
67 17 4 7 6
67 17 5 6 -12
67 17 5 8 12
67 17 6 8 -12
67 18 1 3 6
67 18 2 3 12
67 19 1 2 9
67 19 1 3 1
68 5 4 4 32
68 6 4 4 -16
68 6 4 5 -8
68 6 4 6 -8
68 6 5 6 8
68 9 5 8 16
68 10 2 3 16
68 11 6 9 8
68 11 7 7 8
68 13 1 1 16
68 14 1 1 -16
68 16 7 7 8
68 16 7 17 8
68 16 8 11 16
68 16 8 15 16
68 16 11 11 16
68 16 12 13 8
68 16 13 13 16
68 16 14 14 4
68 16 14 15 8
68 17 4 5 16
68 17 4 8 -16
68 17 5 5 -16
68 17 6 6 -16
68 17 7 7 -4
68 17 7 8 8
68 18 1 2 8
68 18 2 4 4
68 19 1 1 8
68 19 1 2 4
68 19 2 2 4
69 5 4 4 32
69 6 5 5 -8
69 6 5 6 -8
69 6 6 6 -8
69 9 5 5 8
69 9 5 8 8
69 10 2 2 8
69 10 2 3 -8
69 11 6 6 4
69 11 6 11 4
69 11 7 9 4
69 11 7 11 4
69 13 1 2 8
69 16 7 11 8
69 16 7 13 8
69 16 8 8 8
69 16 8 13 8
69 16 8 15 8
69 16 8 17 8
69 16 11 12 4
69 16 11 14 4
69 16 11 15 8
69 16 12 14 2
69 16 13 14 4
69 16 13 15 8
69 16 14 15 4
69 17 4 4 8
69 17 4 6 8
69 17 4 8 8
69 17 5 7 -4
69 17 5 8 -8
69 17 6 7 -4
69 17 6 8 8
69 17 7 8 -4
69 18 1 2 4
69 18 1 4 2
69 18 2 2 8
69 18 2 4 2
69 19 1 1 8
69 19 1 2 4
69 19 2 2 4
70 7 7 7 48
70 8 12 12 24
70 8 12 13 12
70 8 12 14 12
70 8 13 13 24
70 8 13 14 12
70 8 14 14 24
70 9 6 7 12
70 11 8 10 12
70 12 1 2 12
70 12 3 3 12
70 16 9 14 12
70 16 9 16 12
70 16 10 12 6
70 16 10 16 6
70 16 11 13 24
70 16 15 15 24
70 17 5 6 -24
70 17 8 8 24
70 18 1 3 6
70 18 2 3 12
70 19 1 2 9
70 19 1 3 1
71 7 7 7 64
71 8 12 12 -16
71 8 12 13 -16
71 8 13 13 -16
71 9 6 8 16
71 11 8 8 8
71 11 8 9 8
71 13 1 1 16
71 14 1 1 -16
71 16 9 9 8
71 16 9 11 16
71 16 9 17 8
71 16 10 15 16
71 16 11 11 16
71 16 12 15 8
71 16 13 13 16
71 16 13 14 8
71 16 14 14 4
71 17 5 5 -16
71 17 6 6 -16
71 17 6 7 -8
71 17 7 7 -4
71 18 1 2 8
71 18 2 4 4
71 19 1 1 8
71 19 1 2 4
71 19 2 2 4
72 7 7 7 64
72 8 12 13 16
72 8 12 14 -16
72 8 13 14 -16
72 8 14 14 -32
72 9 6 6 16
72 11 8 11 16
72 13 2 2 16
72 16 9 13 32
72 16 10 10 8
72 16 10 17 8
72 16 11 14 16
72 16 12 12 4
72 16 15 15 32
72 17 5 7 -16
72 17 8 8 -32
72 18 1 4 4
72 18 2 2 16
72 19 1 1 8
72 19 1 2 4
72 19 2 2 4
73 9 7 7 48
73 12 1 4 48
73 15 1 1 48
73 16 11 16 48
73 16 12 12 12
73 17 5 9 48
73 18 1 5 12
73 18 3 3 48
73 19 1 3 4
73 19 2 2 12
74 9 7 8 24
74 11 9 9 12
74 12 1 1 12
74 12 1 5 12
74 13 1 3 24
74 14 1 2 24
74 16 11 11 24
74 16 11 17 24
74 16 12 15 12
74 16 13 16 12
74 16 14 16 6
74 17 5 5 24
74 17 6 9 12
74 17 7 9 6
74 18 1 3 12
74 18 2 4 6
74 18 3 4 6
74 19 1 2 6
74 19 2 2 6
74 19 2 3 1
75 9 8 8 24
75 10 3 3 24
75 11 9 10 12
75 12 2 5 12
75 12 3 3 12
75 13 1 3 24
75 14 1 2 -24
75 16 11 14 12
75 16 11 16 12
75 16 12 16 6
75 16 13 17 24
75 16 15 15 24
75 17 5 7 12
75 17 5 9 -12
75 17 8 8 24
75 18 1 4 6
75 18 2 3 12
75 18 3 4 6
75 19 1 2 6
75 19 2 2 6
75 19 2 3 1
76 9 8 8 32
76 10 3 3 -32
76 11 9 11 16
76 13 1 1 32
76 13 2 2 16
76 14 1 1 32
76 16 11 13 32
76 16 12 17 8
76 16 14 17 16
76 16 15 15 32
76 17 5 6 32
76 17 8 8 -32
76 18 1 1 8
76 18 2 2 16
76 18 4 4 12
76 19 1 1 8
76 19 2 2 12
77 11 10 10 24
77 12 2 4 24
77 12 3 4 24
77 15 1 1 48
77 16 13 16 24
77 16 14 14 12
77 16 15 16 24
77 17 6 9 -24
77 17 7 7 12
77 17 8 9 24
77 18 2 5 12
77 18 3 3 48
77 19 1 3 4
77 19 2 2 12
78 11 10 11 12
78 11 11 11 12
78 12 2 2 12
78 12 3 5 12
78 13 2 3 24
78 16 13 13 24
78 16 13 14 12
78 16 14 16 6
78 16 15 16 12
78 16 15 17 24
78 17 6 6 24
78 17 6 7 12
78 17 7 9 -6
78 17 8 9 -12
78 18 2 3 12
78 18 2 4 6
78 18 3 4 6
78 19 1 2 6
78 19 2 2 6
78 19 2 3 1
79 12 4 4 120
79 15 1 2 120
79 16 16 16 60
79 17 9 9 60
79 18 3 5 60
79 19 2 3 10
80 12 4 5 48
80 13 3 3 96
80 14 2 2 96
80 15 1 1 48
80 16 16 17 48
80 18 3 3 48
80 18 4 4 12
80 18 4 5 12
80 19 2 2 12
80 19 2 3 4
81 12 5 5 72
81 13 3 3 144
81 14 2 2 -144
81 16 16 16 36
81 16 17 17 72
81 17 9 9 -36
81 18 3 4 36
81 19 2 2 18
81 19 3 3 2
82 15 2 2 720
82 18 5 5 180
82 19 3 3 20
